ilp_joint_2/output/respiration_ilp.lp
Maximize
  0.00160922692657461 Z_130_0_0 + 0.00490003649048887 Z_130_0_1
   + 0.4722529322201174 Z_130_0_2 + 0.00263860753631689 Z_130_0_3
   + 0.00339676386002358 Z_130_0_4 + 0.00131611081191024 Z_130_4_0
   + 0.0144172344203635 Z_130_4_1 + 0.3695586933854099 Z_130_4_2
   + 0.00218222322883721 Z_130_4_3 + 0.00208795894129232 Z_130_4_4
   + 0.0539397578800976 Z_130_1_0 + 0.0645918432061691 Z_130_1_1
   + 0.0406741307862306 Z_130_1_2 + 0.0646660778321699 Z_130_1_3
   + 0.0409128845398654 Z_130_1_4 + 0.00842943575564853 Z_130_2_0
   + 0.03711049181575 Z_130_2_1 + 0.0236993704818784 Z_130_2_2
   + 0.0469401485394862 Z_130_2_3 + 0.1342293974182812 Z_130_2_4
   + 0.2109483316561047 Z_130_3_0 + 0.0160535464653923 Z_130_3_1
   + 0.0142602543227395 Z_130_3_2 + 0.0885480033633917 Z_130_3_3
   + 0.0131462660851392 Z_130_3_4 + 0.175468485355171 Z_130_5_0
   + 0.0433124939660533 Z_130_5_1 + 0.00209837159686947 Z_130_5_2
   + 0.00638362630921419 Z_130_5_3 + 0.00831205687808811 Z_130_5_4
   + 0.0369672600813511 Z_130_6_0 + 0.0570305337256972 Z_130_6_1
   + 0.00556785336444958 Z_130_6_2 + 0.08335041150783 Z_130_6_3
   + 0.0167405944940087 Z_130_6_4 + 0.0539397578800976 Z_130_7_0
   + 0.0645918432061691 Z_130_7_1 + 0.0406741307862306 Z_130_7_2
   + 0.0646660778321699 Z_130_7_3 + 0.0409128845398654 Z_130_7_4
   + 0.00149325605380279 Z_111_0_0 + 0.00782980635719549 Z_111_0_1
   + 0.3852504673842669 Z_111_0_2 + 0.00258339332336699 Z_111_0_3
   + 0.00371779202419259 Z_111_0_4 + [
   0.00163265306122449 Z_130_0_0 * Z_111_0_0
   + 0.00163265306122449 Z_130_0_1 * Z_111_0_1
   + 0.00163265306122449 Z_130_0_2 * Z_111_0_2
   + 0.00163265306122449 Z_130_0_3 * Z_111_0_3
   + 0.00163265306122449 Z_130_0_4 * Z_111_0_4 ] / 2 
Subject To
 constraint1_1300: Z_130_0_0 + Z_130_0_1 + Z_130_0_2 + Z_130_0_3
   + Z_130_0_4 <= 1
 constraint1_1304: Z_130_4_0 + Z_130_4_1 + Z_130_4_2 + Z_130_4_3
   + Z_130_4_4 <= 1
 constraint1_1301: Z_130_1_0 + Z_130_1_1 + Z_130_1_2 + Z_130_1_3
   + Z_130_1_4 <= 1
 constraint1_1302: Z_130_2_0 + Z_130_2_1 + Z_130_2_2 + Z_130_2_3
   + Z_130_2_4 <= 1
 constraint1_1303: Z_130_3_0 + Z_130_3_1 + Z_130_3_2 + Z_130_3_3
   + Z_130_3_4 <= 1
 constraint1_1305: Z_130_5_0 + Z_130_5_1 + Z_130_5_2 + Z_130_5_3
   + Z_130_5_4 <= 1
 constraint1_1306: Z_130_6_0 + Z_130_6_1 + Z_130_6_2 + Z_130_6_3
   + Z_130_6_4 <= 1
 constraint1_1307: Z_130_7_0 + Z_130_7_1 + Z_130_7_2 + Z_130_7_3
   + Z_130_7_4 <= 1
 constraint1_1110: Z_111_0_0 + Z_111_0_1 + Z_111_0_2 + Z_111_0_3
   + Z_111_0_4 <= 1
 constraint2_1300: Z_130_0_0 + Z_130_4_0 + Z_130_1_0 + Z_130_2_0
   + Z_130_3_0 + Z_130_5_0 + Z_130_6_0 + Z_130_7_0 <= 1
 constraint2_1301: Z_130_0_1 + Z_130_4_1 + Z_130_1_1 + Z_130_2_1
   + Z_130_3_1 + Z_130_5_1 + Z_130_6_1 + Z_130_7_1 <= 1
 constraint2_1302: Z_130_0_2 + Z_130_4_2 + Z_130_1_2 + Z_130_2_2
   + Z_130_3_2 + Z_130_5_2 + Z_130_6_2 + Z_130_7_2 <= 1
 constraint2_1303: Z_130_0_3 + Z_130_4_3 + Z_130_1_3 + Z_130_2_3
   + Z_130_3_3 + Z_130_5_3 + Z_130_6_3 + Z_130_7_3 <= 1
 constraint2_1304: Z_130_0_4 + Z_130_4_4 + Z_130_1_4 + Z_130_2_4
   + Z_130_3_4 + Z_130_5_4 + Z_130_6_4 + Z_130_7_4 <= 1
 constraint2_1110: Z_111_0_0 <= 1
 constraint2_1111: Z_111_0_1 <= 1
 constraint2_1112: Z_111_0_2 <= 1
 constraint2_1113: Z_111_0_3 <= 1
 constraint2_1114: Z_111_0_4 <= 1
Bounds
Binaries
 Z_130_0_0 Z_130_0_1 Z_130_0_2 Z_130_0_3 Z_130_0_4 Z_130_4_0 Z_130_4_1
 Z_130_4_2 Z_130_4_3 Z_130_4_4 Z_130_1_0 Z_130_1_1 Z_130_1_2 Z_130_1_3
 Z_130_1_4 Z_130_2_0 Z_130_2_1 Z_130_2_2 Z_130_2_3 Z_130_2_4 Z_130_3_0
 Z_130_3_1 Z_130_3_2 Z_130_3_3 Z_130_3_4 Z_130_5_0 Z_130_5_1 Z_130_5_2
 Z_130_5_3 Z_130_5_4 Z_130_6_0 Z_130_6_1 Z_130_6_2 Z_130_6_3 Z_130_6_4
 Z_130_7_0 Z_130_7_1 Z_130_7_2 Z_130_7_3 Z_130_7_4 Z_111_0_0 Z_111_0_1
 Z_111_0_2 Z_111_0_3 Z_111_0_4
End
