ilp_joint_2/output/respiration_ilp.mps
NAME respiration_srl_ilp
* Max problem is converted into Min one
ROWS
 N  OBJ
 L  constraint1_1300
 L  constraint1_1304
 L  constraint1_1301
 L  constraint1_1302
 L  constraint1_1303
 L  constraint1_1305
 L  constraint1_1306
 L  constraint1_1307
 L  constraint1_1110
 L  constraint2_1300
 L  constraint2_1301
 L  constraint2_1302
 L  constraint2_1303
 L  constraint2_1304
 L  constraint2_1110
 L  constraint2_1111
 L  constraint2_1112
 L  constraint2_1113
 L  constraint2_1114
COLUMNS
    MARKER    'MARKER'                 'INTORG'
    Z_130_0_0  OBJ       -1.6092269265746140e-03
    Z_130_0_0  constraint1_1300  1
    Z_130_0_0  constraint2_1300  1
    Z_130_0_1  OBJ       -4.9000364904888682e-03
    Z_130_0_1  constraint1_1300  1
    Z_130_0_1  constraint2_1301  1
    Z_130_0_2  OBJ       -4.7225293222011738e-01
    Z_130_0_2  constraint1_1300  1
    Z_130_0_2  constraint2_1302  1
    Z_130_0_3  OBJ       -2.6386075363168948e-03
    Z_130_0_3  constraint1_1300  1
    Z_130_0_3  constraint2_1303  1
    Z_130_0_4  OBJ       -3.3967638600235772e-03
    Z_130_0_4  constraint1_1300  1
    Z_130_0_4  constraint2_1304  1
    Z_130_4_0  OBJ       -1.3161108119102427e-03
    Z_130_4_0  constraint1_1304  1
    Z_130_4_0  constraint2_1300  1
    Z_130_4_1  OBJ       -1.4417234420363467e-02
    Z_130_4_1  constraint1_1304  1
    Z_130_4_1  constraint2_1301  1
    Z_130_4_2  OBJ       -3.6955869338540992e-01
    Z_130_4_2  constraint1_1304  1
    Z_130_4_2  constraint2_1302  1
    Z_130_4_3  OBJ       -2.1822232288372101e-03
    Z_130_4_3  constraint1_1304  1
    Z_130_4_3  constraint2_1303  1
    Z_130_4_4  OBJ       -2.0879589412923227e-03
    Z_130_4_4  constraint1_1304  1
    Z_130_4_4  constraint2_1304  1
    Z_130_1_0  OBJ       -5.3939757880097583e-02
    Z_130_1_0  constraint1_1301  1
    Z_130_1_0  constraint2_1300  1
    Z_130_1_1  OBJ       -6.4591843206169119e-02
    Z_130_1_1  constraint1_1301  1
    Z_130_1_1  constraint2_1301  1
    Z_130_1_2  OBJ       -4.0674130786230583e-02
    Z_130_1_2  constraint1_1301  1
    Z_130_1_2  constraint2_1302  1
    Z_130_1_3  OBJ       -6.4666077832169877e-02
    Z_130_1_3  constraint1_1301  1
    Z_130_1_3  constraint2_1303  1
    Z_130_1_4  OBJ       -4.0912884539865357e-02
    Z_130_1_4  constraint1_1301  1
    Z_130_1_4  constraint2_1304  1
    Z_130_2_0  OBJ       -8.4294357556485289e-03
    Z_130_2_0  constraint1_1302  1
    Z_130_2_0  constraint2_1300  1
    Z_130_2_1  OBJ       -3.7110491815749991e-02
    Z_130_2_1  constraint1_1302  1
    Z_130_2_1  constraint2_1301  1
    Z_130_2_2  OBJ       -2.3699370481878423e-02
    Z_130_2_2  constraint1_1302  1
    Z_130_2_2  constraint2_1302  1
    Z_130_2_3  OBJ       -4.6940148539486248e-02
    Z_130_2_3  constraint1_1302  1
    Z_130_2_3  constraint2_1303  1
    Z_130_2_4  OBJ       -1.3422939741828122e-01
    Z_130_2_4  constraint1_1302  1
    Z_130_2_4  constraint2_1304  1
    Z_130_3_0  OBJ       -2.1094833165610466e-01
    Z_130_3_0  constraint1_1303  1
    Z_130_3_0  constraint2_1300  1
    Z_130_3_1  OBJ       -1.6053546465392310e-02
    Z_130_3_1  constraint1_1303  1
    Z_130_3_1  constraint2_1301  1
    Z_130_3_2  OBJ       -1.4260254322739464e-02
    Z_130_3_2  constraint1_1303  1
    Z_130_3_2  constraint2_1302  1
    Z_130_3_3  OBJ       -8.8548003363391692e-02
    Z_130_3_3  constraint1_1303  1
    Z_130_3_3  constraint2_1303  1
    Z_130_3_4  OBJ       -1.3146266085139191e-02
    Z_130_3_4  constraint1_1303  1
    Z_130_3_4  constraint2_1304  1
    Z_130_5_0  OBJ       -1.7546848535517096e-01
    Z_130_5_0  constraint1_1305  1
    Z_130_5_0  constraint2_1300  1
    Z_130_5_1  OBJ       -4.3312493966053300e-02
    Z_130_5_1  constraint1_1305  1
    Z_130_5_1  constraint2_1301  1
    Z_130_5_2  OBJ       -2.0983715968694713e-03
    Z_130_5_2  constraint1_1305  1
    Z_130_5_2  constraint2_1302  1
    Z_130_5_3  OBJ       -6.3836263092141854e-03
    Z_130_5_3  constraint1_1305  1
    Z_130_5_3  constraint2_1303  1
    Z_130_5_4  OBJ       -8.3120568780881143e-03
    Z_130_5_4  constraint1_1305  1
    Z_130_5_4  constraint2_1304  1
    Z_130_6_0  OBJ       -3.6967260081351150e-02
    Z_130_6_0  constraint1_1306  1
    Z_130_6_0  constraint2_1300  1
    Z_130_6_1  OBJ       -5.7030533725697219e-02
    Z_130_6_1  constraint1_1306  1
    Z_130_6_1  constraint2_1301  1
    Z_130_6_2  OBJ       -5.5678533644495801e-03
    Z_130_6_2  constraint1_1306  1
    Z_130_6_2  constraint2_1302  1
    Z_130_6_3  OBJ       -8.3350411507829958e-02
    Z_130_6_3  constraint1_1306  1
    Z_130_6_3  constraint2_1303  1
    Z_130_6_4  OBJ       -1.6740594494008665e-02
    Z_130_6_4  constraint1_1306  1
    Z_130_6_4  constraint2_1304  1
    Z_130_7_0  OBJ       -5.3939757880097583e-02
    Z_130_7_0  constraint1_1307  1
    Z_130_7_0  constraint2_1300  1
    Z_130_7_1  OBJ       -6.4591843206169119e-02
    Z_130_7_1  constraint1_1307  1
    Z_130_7_1  constraint2_1301  1
    Z_130_7_2  OBJ       -4.0674130786230583e-02
    Z_130_7_2  constraint1_1307  1
    Z_130_7_2  constraint2_1302  1
    Z_130_7_3  OBJ       -6.4666077832169877e-02
    Z_130_7_3  constraint1_1307  1
    Z_130_7_3  constraint2_1303  1
    Z_130_7_4  OBJ       -4.0912884539865357e-02
    Z_130_7_4  constraint1_1307  1
    Z_130_7_4  constraint2_1304  1
    Z_111_0_0  OBJ       -1.4932560538027939e-03
    Z_111_0_0  constraint1_1110  1
    Z_111_0_0  constraint2_1110  1
    Z_111_0_1  OBJ       -7.8298063571954901e-03
    Z_111_0_1  constraint1_1110  1
    Z_111_0_1  constraint2_1111  1
    Z_111_0_2  OBJ       -3.8525046738426688e-01
    Z_111_0_2  constraint1_1110  1
    Z_111_0_2  constraint2_1112  1
    Z_111_0_3  OBJ       -2.5833933233669892e-03
    Z_111_0_3  constraint1_1110  1
    Z_111_0_3  constraint2_1113  1
    Z_111_0_4  OBJ       -3.7177920241925899e-03
    Z_111_0_4  constraint1_1110  1
    Z_111_0_4  constraint2_1114  1
    MARKER    'MARKER'                 'INTEND'
RHS
    RHS1      constraint1_1300  1
    RHS1      constraint1_1304  1
    RHS1      constraint1_1301  1
    RHS1      constraint1_1302  1
    RHS1      constraint1_1303  1
    RHS1      constraint1_1305  1
    RHS1      constraint1_1306  1
    RHS1      constraint1_1307  1
    RHS1      constraint1_1110  1
    RHS1      constraint2_1300  1
    RHS1      constraint2_1301  1
    RHS1      constraint2_1302  1
    RHS1      constraint2_1303  1
    RHS1      constraint2_1304  1
    RHS1      constraint2_1110  1
    RHS1      constraint2_1111  1
    RHS1      constraint2_1112  1
    RHS1      constraint2_1113  1
    RHS1      constraint2_1114  1
BOUNDS
 UP BND1      Z_130_0_0  1
 UP BND1      Z_130_0_1  1
 UP BND1      Z_130_0_2  1
 UP BND1      Z_130_0_3  1
 UP BND1      Z_130_0_4  1
 UP BND1      Z_130_4_0  1
 UP BND1      Z_130_4_1  1
 UP BND1      Z_130_4_2  1
 UP BND1      Z_130_4_3  1
 UP BND1      Z_130_4_4  1
 UP BND1      Z_130_1_0  1
 UP BND1      Z_130_1_1  1
 UP BND1      Z_130_1_2  1
 UP BND1      Z_130_1_3  1
 UP BND1      Z_130_1_4  1
 UP BND1      Z_130_2_0  1
 UP BND1      Z_130_2_1  1
 UP BND1      Z_130_2_2  1
 UP BND1      Z_130_2_3  1
 UP BND1      Z_130_2_4  1
 UP BND1      Z_130_3_0  1
 UP BND1      Z_130_3_1  1
 UP BND1      Z_130_3_2  1
 UP BND1      Z_130_3_3  1
 UP BND1      Z_130_3_4  1
 UP BND1      Z_130_5_0  1
 UP BND1      Z_130_5_1  1
 UP BND1      Z_130_5_2  1
 UP BND1      Z_130_5_3  1
 UP BND1      Z_130_5_4  1
 UP BND1      Z_130_6_0  1
 UP BND1      Z_130_6_1  1
 UP BND1      Z_130_6_2  1
 UP BND1      Z_130_6_3  1
 UP BND1      Z_130_6_4  1
 UP BND1      Z_130_7_0  1
 UP BND1      Z_130_7_1  1
 UP BND1      Z_130_7_2  1
 UP BND1      Z_130_7_3  1
 UP BND1      Z_130_7_4  1
 UP BND1      Z_111_0_0  1
 UP BND1      Z_111_0_1  1
 UP BND1      Z_111_0_2  1
 UP BND1      Z_111_0_3  1
 UP BND1      Z_111_0_4  1
QUADOBJ
    Z_130_0_0  Z_111_0_0  -8.1632653061224482e-04
    Z_130_0_1  Z_111_0_1  -8.1632653061224482e-04
    Z_130_0_2  Z_111_0_2  -8.1632653061224482e-04
    Z_130_0_3  Z_111_0_3  -8.1632653061224482e-04
    Z_130_0_4  Z_111_0_4  -8.1632653061224482e-04
ENDATA
