ilp_joint_2/output/respiration_ilp.sol
# Solution for model respiration_srl_ilp
# Objective value = 1.3514397099233815e+00
Z_130_0_0 0
Z_130_0_1 0
Z_130_0_2 1
Z_130_0_3 0
Z_130_0_4 0
Z_130_4_0 0
Z_130_4_1 0
Z_130_4_2 0
Z_130_4_3 0
Z_130_4_4 0
Z_130_1_0 0
Z_130_1_1 1
Z_130_1_2 0
Z_130_1_3 0
Z_130_1_4 0
Z_130_2_0 0
Z_130_2_1 0
Z_130_2_2 0
Z_130_2_3 0
Z_130_2_4 1
Z_130_3_0 1
Z_130_3_1 0
Z_130_3_2 0
Z_130_3_3 0
Z_130_3_4 0
Z_130_5_0 0
Z_130_5_1 0
Z_130_5_2 0
Z_130_5_3 0
Z_130_5_4 0
Z_130_6_0 0
Z_130_6_1 0
Z_130_6_2 0
Z_130_6_3 1
Z_130_6_4 0
Z_130_7_0 0
Z_130_7_1 0
Z_130_7_2 0
Z_130_7_3 0
Z_130_7_4 0
Z_111_0_0 0
Z_111_0_1 0
Z_111_0_2 1
Z_111_0_3 0
Z_111_0_4 0
